c 163_3_checker_5cl.cnf
c
c field = 163
c formula set type = 3_checker_5cl
c
p cnf 5 16
320 
322 
326 
-329 
-318 
321 
323 
327 
-328 
-319 
322 
326 
328 
-321 
-318 
323 
327 
329 
-320 
-319 
354 
384 
414 
-445 
-294 
355 
385 
415 
-444 
-295 
260 
292 
356 
-389 
-228 
261 
293 
357 
-388 
-229 
292 
356 
388 
-261 
-228 
293 
357 
389 
-260 
-229 
268 
296 
352 
-381 
-408 
269 
297 
353 
-380 
-409 
296 
352 
380 
-269 
-408 
297 
353 
381 
-268 
-409 
352 
380 
408 
-437 
-296 
353 
381 
409 
-436 
-297 
